Version identifier: 22.1.0.0 | 2022-03-09 | 1a383f8ce
CPXPARAM_Threads                                 1
CPXPARAM_MIP_Strategy_VariableSelect             3
CPXPARAM_TimeLimit                               599.99998296800004
1 of 1 MIP starts provided solutions.
MIP start 'm1' defined initial solution with objective 1.0000.
Tried aggregator 1 time.
MIP Presolve eliminated 17 rows and 0 columns.
MIP Presolve modified 5 coefficients.
Reduced MIP has 2108 rows, 7500 columns, and 125196 nonzeros.
Reduced MIP has 7500 binaries, 0 generals, 0 SOSs, and 0 indicators.
Presolve time = 0.07 sec. (50.60 ticks)
Probing time = 0.01 sec. (8.92 ticks)
Tried aggregator 1 time.
Detecting symmetries...
Reduced MIP has 2108 rows, 7500 columns, and 125196 nonzeros.
Reduced MIP has 7500 binaries, 0 generals, 0 SOSs, and 0 indicators.
Presolve time = 0.08 sec. (60.66 ticks)
Probing time = 0.01 sec. (8.92 ticks)
Clique table members: 301.
MIP emphasis: balance optimality and feasibility.
MIP search method: dynamic search.
Parallel mode: none, using 1 thread.
Root relaxation solution time = 0.19 sec. (202.47 ticks)

        Nodes                                         Cuts/
   Node  Left     Objective  IInf  Best Integer    Best Bound    ItCnt     Gap

*     0+    0                            1.0000     7500.0000              --- 
      0     0      300.0000   185        1.0000      300.0000     1492     --- 
*     0+    0                          300.0000      300.0000             0.00%
      0     0        cutoff            300.0000      300.0000     1492    0.00%
Elapsed time = 0.93 sec. (782.73 ticks, tree = 0.01 MB, solutions = 2)

Root node processing (before b&c):
  Real time             =    0.93 sec. (783.02 ticks)
Sequential b&c:
  Real time             =    0.00 sec. (0.00 ticks)
                          ------------
Total (root+branch&cut) =    0.93 sec. (783.02 ticks)
Primal:	300
Dual:	300
Status:	Optimal
Time:	0.97
Sequence:
	21
	0
	9
	15
	5
	0
	22
	24
	23
	16
	23
	23
	3
	6
	23
	23
	9
	16
	9
	6
	9
	3
	22
	1
	8
	7
	24
	21
	9
	9
	9
	20
	18
	18
	20
	18
	20
	13
	18
	17
	9
	0
	6
	21
	6
	20
	20
	20
	20
	16
	11
	20
	11
	1
	16
	20
	13
	8
	24
	6
	8
	8
	8
	20
	6
	0
	13
	0
	13
	3
	3
	16
	3
	3
	20
	20
	20
	20
	21
	20
	10
	17
	16
	17
	16
	3
	16
	16
	16
	16
	21
	21
	6
	16
	16
	6
	21
	6
	16
	6
	16
	6
	3
	10
	21
	3
	6
	3
	3
	3
	6
	14
	3
	3
	17
	17
	6
	6
	17
	6
	6
	6
	21
	12
	17
	17
	3
	3
	3
	0
	3
	13
	12
	16
	21
	12
	13
	20
	3
	11
	6
	10
	9
	11
	21
	16
	0
	6
	3
	13
	17
	12
	12
	6
	6
	12
	22
	12
	0
	13
	13
	2
	12
	1
	7
	13
	1
	6
	14
	14
	6
	12
	10
	19
	6
	24
	15
	1
	0
	12
	1
	22
	14
	1
	12
	9
	15
	21
	23
	7
	13
	22
	22
	21
	9
	9
	0
	8
	10
	1
	13
	5
	8
	7
	4
	11
	22
	5
	5
	6
	0
	6
	6
	3
	16
	16
	22
	12
	5
	5
	6
	5
	9
	5
	5
	3
	8
	5
	5
	3
	22
	7
	14
	24
	3
	0
	15
	15
	16
	14
	15
	15
	6
	12
	15
	10
	0
	20
	8
	0
	0
	3
	2
	2
	16
	4
	0
	1
	4
	4
	6
	12
	4
	4
	4
	14
	4
	1
	0
	4
	2
	4
	5
	11
	4
	4
	21
	12
	3
	1
	1
	13
	1
	9
	4
	4
	6
	4
	0
	20
	11
	24
	4
	21
	10
	8
	0
	3
	0
	0
